runtime-EclipseApplication/VendingMachine/z3/model.smt2
(define-sort Feature () Bool)
(declare-const VM Feature)
(declare-const BEV Feature)
(declare-const COF Feature)
(declare-const TEA Feature)
(declare-const CAP Feature)
(declare-const TON Feature)
(declare-const CUR Feature)
(declare-const EUR Feature)
(declare-const DOL Feature)

(assert VM)
(assert (and
   (= BEV VM)
   (= (or COF  TEA  CAP ) BEV)
   (=> TON VM)
   (= CUR VM)
   (= (or EUR  DOL ) CUR)
   (not (and EUR DOL))
))

(push)
(assert (and true true true))
(check-sat)
(pop)
