runtime-EclipseApplication/VendingMachine/model.txt
5@true -- c@true/_1() -> 1@true
5@true -- b@true/_0() -> 5@true
